NAME : XML100_2252_04
DIMENSION : 101
NB_CLUSTERS : 6
CLUSTERING_ALG : KMedoids
CLUSTERING_PARAMS : k(5)
CLUSTERS
1 0
2 1 6 7 18 19 25 26 27 45 47 53 57 58 61 69 72 75 76 79 89
3 8 11 17 20 23 30 34 35 37 39 40 43 46 64 83 88 96 100
4 28 31 32 49 52 55 63 66 68 71 73 78 82 84 85 86 93
5 2 3 4 5 12 14 15 16 21 22 29 33 41 44 50 51 54 56 59 60 62 67 74 80 92 94 95 97 98
6 9 10 13 24 36 38 42 48 65 70 77 81 87 90 91 99
EOF